c   #vars: 129   #clauses: 576   #literals: 1566
c 
p cnf 129 576
-1 -2 0
-3 -4 0
-5 -6 0
-7 -8 0
-9 -10 0
-11 -12 0
22 91 92 -118 0
-14 -15 0
-16 -17 0
-18 -19 0
-20 -21 0
-23 -24 0
87 -105 128 129 0
-26 -27 0
-28 -29 0
-30 -31 0
-32 -33 0
-34 -35 0
-36 -37 0
28 29 -59 113 0
-38 -39 0
-40 -41 0
-42 -43 0
-44 -45 0
-46 -47 0
-48 -49 0
-50 -51 0
55 56 59 -113 0
-53 -54 0
30 31 88 -106 0
-55 -56 0
-57 -58 0
73 74 103 104 0
73 74 107 108 0
-11 68 128 129 0
-60 -61 0
-62 -63 0
-64 -65 0
-66 -67 0
-27 30 31 88 0
40 41 53 54 0
-28 -56 59 113 0
-69 -70 0
-71 -72 0
-73 -74 0
-75 -76 0
-77 -78 0
-79 -80 0
-81 -82 0
-83 -84 0
-85 -86 0
-54 88 105 106 0
-89 -90 0
-91 -92 0
-93 -94 0
-95 -96 0
-97 -98 0
-99 -100 0
-101 -102 0
-103 -104 0
-105 -106 0
-107 -108 0
-109 -110 0
-111 -112 0
13 -40 81 82 0
-114 -115 0
-116 -117 0
-118 -119 0
26 27 97 98 0
23 24 103 104 0
-120 -121 0
-122 -123 0
-124 -125 0
5 6 126 127 0
-126 -127 0
3 4 120 121 0
-128 -129 0
23 24 79 80 0
-1 -57 0
-2 -58 0
26 27 107 108 0
-1 -60 0
-2 -61 0
57 58 109 110 0
-1 -89 0
-2 -90 0
7 8 53 54 0
-1 -103 0
-2 -104 0
69 70 75 76 0
26 27 88 -106 0
-4 -68 0
25 -75 109 110 0
-3 -77 0
-4 -78 0
9 10 120 121 0
-3 -79 0
-4 -80 0
16 17 99 100 0
-3 -95 0
-4 -96 0
77 78 116 117 0
-3 -114 0
-4 -115 0
89 90 124 125 0
-3 -120 0
-4 -121 0
-27 53 54 88 0
-5 -20 0
-6 -21 0
5 6 128 129 0
-5 -30 0
-6 -31 0
107 108 120 121 0
-31 88 105 106 0
-6 -87 0
3 4 95 96 0
-5 -126 0
-6 -127 0
50 51 105 106 0
-5 -128 0
-6 -129 0
71 72 105 106 0
-7 -46 0
-8 -47 0
30 31 38 39 0
-7 -53 0
-8 -54 0
1 2 60 61 0
-7 -62 0
-8 -63 0
48 49 109 110 0
-7 -64 0
-8 -65 0
-9 -48 0
-10 -49 0
23 24 46 47 0
-9 -57 0
-10 -58 0
53 54 88 -106 0
-9 -64 0
-10 -65 0
11 12 105 106 0
5 6 87 -105 0
36 37 116 117 0
-9 -77 0
-10 -78 0
38 39 124 125 0
-9 -120 0
-10 -121 0
16 17 103 104 0
-11 -18 0
-12 -19 0
7 8 62 63 0
26 27 -54 88 0
-12 -68 0
79 80 111 112 0
-11 -103 0
-12 -104 0
97 98 120 121 0
-11 -105 0
-12 -106 0
48 49 81 82 0
-11 -124 0
-12 -125 0
22 91 92 -103 0
-13 -41 0
22 -103 118 119 0
-13 -82 0
28 29 101 102 0
22 -91 118 119 0
-13 -102 0
11 12 18 19 0
-14 -20 0
-15 -21 0
-55 -56 59 113 0
-14 -34 0
-15 -35 0
14 15 101 102 0
-14 -93 0
-15 -94 0
40 41 93 94 0
-14 -97 0
-15 -98 0
1 2 57 58 0
-14 -101 0
-15 -102 0
25 75 76 -109 0
-16 -34 0
-17 -35 0
32 33 114 115 0
-16 -55 0
-17 -56 0
25 -32 109 110 0
-16 -99 0
-17 -100 0
53 54 111 112 0
-16 -103 0
-17 -104 0
66 67 73 74 0
55 56 59 -67 0
-19 -52 0
14 15 20 21 0
-18 -55 0
-19 -56 0
5 6 20 21 0
-18 -62 0
-19 -63 0
69 70 118 119 0
-18 -116 0
-19 -117 0
50 51 122 123 0
-20 -42 0
-21 -43 0
73 74 111 112 0
-20 -50 0
-21 -51 0
83 84 101 102 0
-20 -57 0
-21 -58 0
-18 52 75 76 0
-22 -92 0
48 49 73 74 0
-22 -104 0
-5 87 105 106 0
-22 -119 0
3 4 77 78 0
-23 -32 0
-24 -33 0
20 21 50 51 0
-23 -46 0
-24 -47 0
28 29 83 84 0
-23 -48 0
-24 -49 0
28 29 55 56 0
-23 -57 0
-24 -58 0
26 27 28 29 0
-23 -79 0
-24 -80 0
87 -105 122 123 0
-23 -103 0
-24 -104 0
-5 87 128 129 0
-25 -33 0
87 105 106 -128 0
5 6 87 -128 0
-25 -76 0
99 100 116 117 0
5 6 87 -122 0
-25 -110 0
9 10 64 65 0
25 32 33 -109 0
36 37 128 129 0
-26 -28 0
-27 -29 0
-5 87 122 123 0
-26 -88 0
75 76 97 98 0
-26 -91 0
-27 -92 0
91 92 120 121 0
-26 -97 0
-27 -98 0
16 17 34 35 0
-26 -107 0
-27 -108 0
-28 -34 0
-29 -35 0
46 47 60 61 0
-28 -55 0
-29 -56 0
-28 -83 0
-29 -84 0
30 31 42 43 0
-28 -101 0
-29 -102 0
13 81 82 -101 0
-29 -113 0
22 103 104 -118 0
-30 -38 0
-31 -39 0
44 45 99 100 0
-30 -42 0
-31 -43 0
28 29 34 35 0
-30 -79 0
-31 -80 0
-30 -88 0
14 15 34 35 0
-30 -91 0
-31 -92 0
38 39 118 119 0
-32 -60 0
-33 -61 0
-32 -114 0
-33 -115 0
23 24 48 49 0
-34 -69 0
-35 -70 0
-34 -95 0
-35 -96 0
9 10 48 49 0
-34 -97 0
-35 -98 0
7 8 64 65 0
-36 -62 0
-37 -63 0
34 35 95 96 0
-36 -107 0
-37 -108 0
34 35 97 98 0
-36 -116 0
-37 -117 0
14 15 93 94 0
-36 -128 0
-37 -129 0
22 -91 103 104 0
-18 52 85 86 0
28 29 -55 113 0
18 19 52 -85 0
25 -32 75 76 0
18 19 52 -75 0
71 72 97 98 0
-38 -69 0
-39 -70 0
36 37 107 108 0
-38 -93 0
-39 -94 0
91 92 118 119 0
-38 -118 0
-39 -119 0
20 21 57 58 0
-38 -124 0
-39 -125 0
20 21 42 43 0
-40 -53 0
-41 -54 0
-40 -69 0
-41 -70 0
62 63 97 98 0
-40 -71 0
-41 -72 0
83 84 91 92 0
-40 -93 0
-41 -94 0
44 45 81 82 0
-42 -71 0
-43 -72 0
30 31 -54 88 0
-42 -93 0
-43 -94 0
-42 -111 0
-43 -112 0
-55 59 -67 113 0
-44 -81 0
-45 -82 0
-44 -99 0
-45 -100 0
7 8 46 47 0
-44 -109 0
-45 -110 0
42 43 93 94 0
-44 -111 0
-45 -112 0
64 65 93 94 0
-44 -128 0
-45 -129 0
50 51 126 127 0
-46 -60 0
-47 -61 0
62 63 73 74 0
-46 -77 0
-47 -78 0
107 108 118 119 0
-46 -79 0
-47 -80 0
-48 -73 0
-49 -74 0
95 96 116 117 0
-48 -81 0
-49 -82 0
-48 -85 0
-49 -86 0
83 84 114 115 0
-48 -109 0
-49 -110 0
18 19 55 56 0
-50 -89 0
-51 -90 0
87 122 123 -128 0
-50 -105 0
-51 -106 0
16 17 55 56 0
-50 -122 0
-51 -123 0
-50 -126 0
-51 -127 0
71 72 79 80 0
59 66 67 -113 0
-52 -76 0
32 33 60 61 0
-56 59 66 67 0
-52 -86 0
18 19 62 63 0
-53 -60 0
-54 -61 0
50 51 89 90 0
-53 -88 0
23 24 57 58 0
-53 -111 0
-54 -112 0
9 10 57 58 0
-53 -122 0
-54 -123 0
38 39 69 70 0
52 -75 85 86 0
3 4 114 115 0
-55 -59 0
-3 68 128 129 0
66 67 126 127 0
13 40 41 -81 0
-56 -113 0
95 96 114 115 0
-57 -109 0
-58 -110 0
-57 -111 0
-58 -112 0
-31 53 54 88 0
3 4 -11 68 0
64 65 126 127 0
3 4 68 -128 0
5 6 30 31 0
-59 -66 0
11 12 68 -128 0
9 10 77 78 0
-3 11 12 68 0
36 37 62 63 0
-60 -73 0
-61 -74 0
42 43 71 72 0
-62 -73 0
-63 -74 0
40 41 71 72 0
-62 -97 0
-63 -98 0
40 41 69 70 0
-64 -93 0
-65 -94 0
38 39 93 94 0
-64 -126 0
-65 -127 0
-27 88 105 106 0
-66 -73 0
-67 -74 0
60 61 73 74 0
-66 -85 0
-67 -86 0
53 54 60 61 0
-66 -126 0
-67 -127 0
34 35 69 70 0
26 27 -31 88 0
-68 -129 0
23 24 32 33 0
87 -122 128 129 0
46 47 77 78 0
-69 -75 0
-70 -76 0
30 31 91 92 0
-28 55 56 113 0
-69 -118 0
-70 -119 0
87 105 106 -122 0
-71 -79 0
-72 -80 0
-28 59 -67 113 0
-71 -97 0
-72 -98 0
111 112 124 125 0
-71 -105 0
-72 -106 0
105 106 124 125 0
-73 -103 0
-74 -104 0
53 54 122 123 0
-73 -107 0
-74 -108 0
30 31 79 80 0
-73 -111 0
-74 -112 0
26 27 91 92 0
-75 -85 0
-76 -86 0
1 2 103 104 0
-75 -97 0
-76 -98 0
-77 -101 0
-78 -102 0
77 78 101 102 0
-77 -116 0
-78 -117 0
79 80 93 94 0
-79 -93 0
-80 -94 0
93 94 107 108 0
-79 -111 0
-80 -112 0
48 49 85 86 0
-81 -85 0
-82 -86 0
75 76 85 86 0
-83 -91 0
-84 -92 0
81 82 85 86 0
-83 -101 0
-84 -102 0
66 67 85 86 0
-83 -114 0
-84 -115 0
13 -81 101 102 0
-87 -106 0
57 58 111 112 0
42 43 111 112 0
25 32 33 -75 0
13 -40 101 102 0
-87 -123 0
52 75 76 -85 0
13 40 41 -101 0
-87 -129 0
1 2 89 90 0
-88 -105 0
89 90 109 110 0
-89 -109 0
-90 -110 0
44 45 109 110 0
-89 -124 0
-90 -125 0
44 45 111 112 0
-91 -118 0
-92 -119 0
11 12 124 125 0
-91 -120 0
-92 -121 0
114 115 122 123 0
-93 -107 0
-94 -108 0
11 12 103 104 0
-95 -114 0
-96 -115 0
46 47 79 80 0
-95 -116 0
-96 -117 0
-97 -120 0
-98 -121 0
55 56 -59 113 0
-99 -101 0
-100 -102 0
3 4 79 80 0
-99 -116 0
-100 -117 0
-105 -124 0
-106 -125 0
99 100 101 102 0
-107 -118 0
-108 -119 0
14 15 97 98 0
-107 -120 0
-108 -121 0
44 45 128 129 0
-111 -124 0
-112 -125 0
18 19 116 117 0
-114 -122 0
-115 -123 0
